; DUP3 ADD SWAP2 POP POP POP => POP POP POP
(set-option :produce-proofs true)
; 
(set-info :status unknown)
(declare-fun storage_t ((_ BitVec 256) (_ BitVec 256) (_ BitVec 256) Int (_ BitVec 256)) (_ BitVec 256))
(declare-fun storage_s ((_ BitVec 256) (_ BitVec 256) (_ BitVec 256) Int (_ BitVec 256)) (_ BitVec 256))
(declare-fun exc_halt_t (Int) Bool)
(declare-fun exc_halt_s (Int) Bool)
(declare-fun stack_t ((_ BitVec 256) (_ BitVec 256) (_ BitVec 256) Int (_ BitVec 6)) (_ BitVec 256))
(declare-fun stack_s ((_ BitVec 256) (_ BitVec 256) (_ BitVec 256) Int (_ BitVec 6)) (_ BitVec 256))
(declare-fun sc_t (Int) (_ BitVec 6))
(declare-fun sc_s (Int) (_ BitVec 6))
(declare-fun used_gas_t ((_ BitVec 256) (_ BitVec 256) (_ BitVec 256) Int) Int)
(declare-fun used_gas_s ((_ BitVec 256) (_ BitVec 256) (_ BitVec 256) Int) Int)
(assert
 (exists ((x_0 (_ BitVec 256)) (x_1 (_ BitVec 256)) (x_2 (_ BitVec 256)) )(let (($x781 (forall ((w (_ BitVec 256)) )(let ((?x7917 (storage_t x_0 x_1 x_2 3 w)))
 (let ((?x9045 (storage_s x_0 x_1 x_2 6 w)))
 (= ?x9045 ?x7917))))
 ))
 (let (($x9131 (exc_halt_t 3)))
 (let (($x7121 (exc_halt_s 6)))
 (let (($x10285 (= $x7121 $x9131)))
 (let (($x949 (forall ((n (_ BitVec 6)) )(let ((?x8828 (stack_t x_0 x_1 x_2 3 n)))
 (let ((?x1556 (stack_s x_0 x_1 x_2 6 n)))
 (let (($x7052 (= ?x1556 ?x8828)))
 (or (bvsle (sc_t 3) n) $x7052)))))
 ))
 (let ((?x10013 (sc_t 3)))
 (let ((?x9114 (sc_s 6)))
 (let (($x10208 (= ?x9114 ?x10013)))
 (let ((?x6915 (used_gas_t x_0 x_1 x_2 0)))
 (let ((?x7505 (used_gas_s x_0 x_1 x_2 0)))
 (let (($x11669 (= ?x7505 ?x6915)))
 (let (($x11468 (forall ((w (_ BitVec 256)) )(let ((?x9715 (storage_t x_0 x_1 x_2 0 w)))
 (let ((?x7998 (storage_s x_0 x_1 x_2 0 w)))
 (= ?x7998 ?x9715))))
 ))
 (let (($x56 (exc_halt_t 0)))
 (let (($x57 (exc_halt_s 0)))
 (let (($x58 (= $x57 $x56)))
 (let (($x3734 (forall ((n (_ BitVec 6)) )(let ((?x63 (sc_t 0)))
 (let (($x11418 (bvsle ?x63 n)))
 (let ((?x11852 (stack_t x_0 x_1 x_2 0 n)))
 (let ((?x3463 (stack_s x_0 x_1 x_2 0 n)))
 (let (($x10648 (= ?x3463 ?x11852)))
 (or $x10648 $x11418)))))))
 ))
 (let ((?x63 (sc_t 0)))
 (let ((?x72 (sc_s 0)))
 (let (($x73 (= ?x72 ?x63)))
 (let (($x2451 (= $x9131 (or (exc_halt_t 2) (not (bvsle (_ bv0 6) (bvadd (_ bv63 6) (sc_t 2))))))))
 (let (($x7393 (forall ((w (_ BitVec 256)) )(let ((?x1329 (storage_t x_0 x_1 x_2 2 w)))
 (let ((?x7917 (storage_t x_0 x_1 x_2 3 w)))
 (= ?x7917 ?x1329))))
 ))
 (let (($x7288 (forall ((n (_ BitVec 6)) )(let ((?x900 (stack_t x_0 x_1 x_2 2 n)))
 (let ((?x8828 (stack_t x_0 x_1 x_2 3 n)))
 (let ((?x9193 (sc_t 2)))
 (let ((?x8475 (bvadd (_ bv63 6) ?x9193)))
 (let (($x592 (bvsle ?x8475 n)))
 (or $x592 (= ?x8828 ?x900))))))))
 ))
 (let ((?x9193 (sc_t 2)))
 (let ((?x8475 (bvadd (_ bv63 6) ?x9193)))
 (let (($x4786 (= ?x10013 ?x8475)))
 (let (($x11544 (= (used_gas_t x_0 x_1 x_2 3) (+ 2 (used_gas_t x_0 x_1 x_2 2)))))
 (let (($x10380 (exc_halt_t 2)))
 (let (($x181 (= $x10380 (or (exc_halt_t 1) (not (bvsle (_ bv0 6) (bvadd (_ bv63 6) (sc_t 1))))))))
 (let (($x6502 (forall ((w (_ BitVec 256)) )(let ((?x5593 (storage_t x_0 x_1 x_2 1 w)))
 (let ((?x1329 (storage_t x_0 x_1 x_2 2 w)))
 (= ?x1329 ?x5593))))
 ))
 (let (($x11234 (forall ((n (_ BitVec 6)) )(let ((?x8615 (sc_t 1)))
 (let ((?x3138 (bvadd (_ bv63 6) ?x8615)))
 (let (($x7836 (bvsle ?x3138 n)))
 (let ((?x1111 (stack_t x_0 x_1 x_2 1 n)))
 (let ((?x900 (stack_t x_0 x_1 x_2 2 n)))
 (or (= ?x900 ?x1111) $x7836)))))))
 ))
 (let ((?x8615 (sc_t 1)))
 (let ((?x3138 (bvadd (_ bv63 6) ?x8615)))
 (let (($x7259 (= ?x9193 ?x3138)))
 (let ((?x8607 (used_gas_t x_0 x_1 x_2 2)))
 (let (($x2018 (forall ((w (_ BitVec 256)) )(let ((?x9715 (storage_t x_0 x_1 x_2 0 w)))
 (let ((?x5593 (storage_t x_0 x_1 x_2 1 w)))
 (= ?x5593 ?x9715))))
 ))
 (let (($x1186 (forall ((n (_ BitVec 6)) )(let ((?x11852 (stack_t x_0 x_1 x_2 0 n)))
 (let ((?x1111 (stack_t x_0 x_1 x_2 1 n)))
 (or (= ?x1111 ?x11852) (bvsle (bvadd (_ bv63 6) (sc_t 0)) n)))))
 ))
 (let (($x2895 (= $x7121 (or (exc_halt_s 5) (not (bvsle (_ bv0 6) (bvadd (_ bv63 6) (sc_s 5))))))))
 (let (($x10733 (forall ((w (_ BitVec 256)) )(let ((?x8902 (storage_s x_0 x_1 x_2 5 w)))
 (let ((?x9045 (storage_s x_0 x_1 x_2 6 w)))
 (= ?x9045 ?x8902))))
 ))
 (let (($x4343 (forall ((n (_ BitVec 6)) )(let ((?x2435 (stack_s x_0 x_1 x_2 5 n)))
 (let ((?x1556 (stack_s x_0 x_1 x_2 6 n)))
 (let ((?x4319 (sc_s 5)))
 (let ((?x711 (bvadd (_ bv63 6) ?x4319)))
 (let (($x3908 (bvsle ?x711 n)))
 (or $x3908 (= ?x1556 ?x2435))))))))
 ))
 (let ((?x4319 (sc_s 5)))
 (let ((?x711 (bvadd (_ bv63 6) ?x4319)))
 (let (($x9369 (= ?x9114 ?x711)))
 (let (($x8703 (= (used_gas_s x_0 x_1 x_2 6) (+ 2 (used_gas_s x_0 x_1 x_2 5)))))
 (let (($x1862 (exc_halt_s 5)))
 (let (($x11188 (= $x1862 (or (exc_halt_s 4) (not (bvsle (_ bv0 6) (bvadd (_ bv63 6) (sc_s 4))))))))
 (let (($x7683 (forall ((w (_ BitVec 256)) )(let ((?x7297 (storage_s x_0 x_1 x_2 4 w)))
 (let ((?x8902 (storage_s x_0 x_1 x_2 5 w)))
 (= ?x8902 ?x7297))))
 ))
 (let (($x3614 (forall ((n (_ BitVec 6)) )(let ((?x8911 (stack_s x_0 x_1 x_2 4 n)))
 (let ((?x2435 (stack_s x_0 x_1 x_2 5 n)))
 (or (bvsle (bvadd (_ bv63 6) (sc_s 4)) n) (= ?x2435 ?x8911)))))
 ))
 (let ((?x3373 (used_gas_s x_0 x_1 x_2 5)))
 (let (($x9175 (exc_halt_s 4)))
 (let (($x1714 (= $x9175 (or (exc_halt_s 3) (not (bvsle (_ bv0 6) (bvadd (_ bv63 6) (sc_s 3))))))))
 (let (($x6977 (forall ((w (_ BitVec 256)) )(let ((?x1732 (storage_s x_0 x_1 x_2 3 w)))
 (let ((?x7297 (storage_s x_0 x_1 x_2 4 w)))
 (= ?x7297 ?x1732))))
 ))
 (let (($x7348 (forall ((n (_ BitVec 6)) )(let ((?x3851 (sc_s 3)))
 (let ((?x819 (bvadd (_ bv63 6) ?x3851)))
 (let (($x11689 (bvsle ?x819 n)))
 (let ((?x10792 (stack_s x_0 x_1 x_2 3 n)))
 (let ((?x8911 (stack_s x_0 x_1 x_2 4 n)))
 (or (= ?x8911 ?x10792) $x11689)))))))
 ))
 (let ((?x3851 (sc_s 3)))
 (let ((?x819 (bvadd (_ bv63 6) ?x3851)))
 (let ((?x9433 (sc_s 4)))
 (let (($x8203 (= ?x9433 ?x819)))
 (let ((?x5055 (used_gas_s x_0 x_1 x_2 4)))
 (let (($x8103 (exc_halt_s 3)))
 (let (($x680 (= $x8103 (or (exc_halt_s 2) (not (bvsle (_ bv0 6) (bvadd (_ bv61 6) (sc_s 2))))))))
 (let (($x6562 (forall ((w (_ BitVec 256)) )(let ((?x4581 (storage_s x_0 x_1 x_2 2 w)))
 (let ((?x1732 (storage_s x_0 x_1 x_2 3 w)))
 (= ?x1732 ?x4581))))
 ))
 (let (($x9398 (forall ((n (_ BitVec 6)) )(let ((?x3319 (stack_s x_0 x_1 x_2 2 n)))
 (let ((?x10792 (stack_s x_0 x_1 x_2 3 n)))
 (or (bvsle (bvadd (_ bv61 6) (sc_s 2)) n) (= ?x10792 ?x3319)))))
 ))
 (let ((?x2272 (sc_s 2)))
 (let (($x5056 (= ?x3851 ?x2272)))
 (let ((?x11344 (used_gas_s x_0 x_1 x_2 3)))
 (let (($x6907 (= (stack_s x_0 x_1 x_2 3 (bvadd (_ bv62 6) ?x3851)) (stack_s x_0 x_1 x_2 2 (bvadd (_ bv62 6) ?x2272)))))
 (let ((?x4124 (bvadd (_ bv63 6) ?x2272)))
 (let ((?x10676 (stack_s x_0 x_1 x_2 2 ?x4124)))
 (let (($x1786 (= (stack_s x_0 x_1 x_2 3 ?x819) (stack_s x_0 x_1 x_2 2 (bvadd (_ bv61 6) ?x2272)))))
 (let (($x10052 (exc_halt_s 2)))
 (let (($x8208 (= $x10052 (or (exc_halt_s 1) (not (bvsle (_ bv0 6) (bvadd (_ bv62 6) (sc_s 1))))))))
 (let (($x9452 (forall ((w (_ BitVec 256)) )(let ((?x1653 (storage_s x_0 x_1 x_2 1 w)))
 (let ((?x4581 (storage_s x_0 x_1 x_2 2 w)))
 (= ?x4581 ?x1653))))
 ))
 (let (($x6311 (forall ((n (_ BitVec 6)) )(let ((?x10907 (stack_s x_0 x_1 x_2 1 n)))
 (let ((?x3319 (stack_s x_0 x_1 x_2 2 n)))
 (or (bvsle (bvadd (_ bv62 6) (sc_s 1)) n) (= ?x3319 ?x10907)))))
 ))
 (let ((?x154 (sc_s 1)))
 (let ((?x3025 (bvadd (_ bv63 6) ?x154)))
 (let (($x8241 (= ?x2272 ?x3025)))
 (let ((?x9454 (used_gas_s x_0 x_1 x_2 2)))
 (let ((?x6299 (stack_s x_0 x_1 x_2 1 ?x3025)))
 (let (($x3074 (= ?x10676 (bvadd ?x6299 (stack_s x_0 x_1 x_2 1 (bvadd (_ bv62 6) ?x154))))))
 (let (($x967 (not (= ((_ extract 6 6) (bvadd (_ bv1 7) (concat (_ bv0 1) ?x72))) (_ bv0 1)))))
 (let (($x8780 (exc_halt_s 1)))
 (let (($x5559 (forall ((w (_ BitVec 256)) )(let ((?x7998 (storage_s x_0 x_1 x_2 0 w)))
 (let ((?x1653 (storage_s x_0 x_1 x_2 1 w)))
 (= ?x1653 ?x7998))))
 ))
 (let (($x1667 (forall ((n (_ BitVec 6)) )(let ((?x3463 (stack_s x_0 x_1 x_2 0 n)))
 (let ((?x10907 (stack_s x_0 x_1 x_2 1 n)))
 (or (bvsle (bvadd (_ bv61 6) (sc_s 0)) n) (= ?x10907 ?x3463)))))
 ))
 (let (($x10962 (= ?x154 (bvadd (_ bv1 6) ?x72))))
 (let (($x11574 (= (stack_s x_0 x_1 x_2 1 (bvadd (_ bv63 6) ?x72)) (stack_s x_0 x_1 x_2 0 (bvadd (_ bv63 6) ?x72)))))
 (let (($x6719 (= (stack_s x_0 x_1 x_2 1 (bvadd (_ bv62 6) ?x72)) (stack_s x_0 x_1 x_2 0 (bvadd (_ bv62 6) ?x72)))))
 (let ((?x7429 (bvadd (_ bv61 6) ?x72)))
 (let ((?x5933 (stack_s x_0 x_1 x_2 0 ?x7429)))
 (let (($x5396 (forall ((w (_ BitVec 256)) )(let ((?x7998 (storage_s x_0 x_1 x_2 0 w)))
 (= ?x7998 (_ bv0 256))))
 ))
 (let (($x3433 (= ?x7505 0)))
 (let (($x10706 (not $x57)))
 (let (($x1227 (= (stack_s x_0 x_1 x_2 0 (_ bv2 6)) x_2)))
 (let (($x9339 (= (stack_s x_0 x_1 x_2 0 (_ bv1 6)) x_1)))
 (let (($x4805 (= (stack_s x_0 x_1 x_2 0 (_ bv0 6)) x_0)))
 (let (($x9108 (= ?x72 (_ bv3 6))))
 (and $x9108 $x4805 $x9339 $x1227 $x10706 $x3433 $x5396 (= ?x6299 ?x5933) (= (stack_s x_0 x_1 x_2 1 ?x7429) ?x5933) $x6719 $x11574 (= (used_gas_s x_0 x_1 x_2 1) (+ 3 ?x7505)) $x10962 $x1667 $x5559 (= $x8780 (or $x57 $x967 (not (bvsle (_ bv0 6) ?x7429)))) $x3074 (= ?x9454 (+ 3 (used_gas_s x_0 x_1 x_2 1))) $x8241 $x6311 $x9452 $x8208 $x1786 (= (stack_s x_0 x_1 x_2 3 (bvadd (_ bv61 6) ?x3851)) ?x10676) $x6907 (= ?x11344 (+ 3 ?x9454)) $x5056 $x9398 $x6562 $x680 (= ?x5055 (+ 2 ?x11344)) $x8203 $x7348 $x6977 $x1714 (= ?x3373 (+ 2 ?x5055)) (= ?x4319 (bvadd (_ bv63 6) ?x9433)) $x3614 $x7683 $x11188 $x8703 $x9369 $x4343 $x10733 $x2895 (= (used_gas_t x_0 x_1 x_2 1) (+ 2 ?x6915)) (= ?x8615 (bvadd (_ bv63 6) ?x63)) $x1186 $x2018 (= (exc_halt_t 1) (or $x56 (not (bvsle (_ bv0 6) (bvadd (_ bv63 6) ?x63))))) (= ?x8607 (+ 2 (used_gas_t x_0 x_1 x_2 1))) $x7259 $x11234 $x6502 $x181 $x11544 $x4786 $x7288 $x7393 $x2451 $x73 $x3734 $x58 $x11468 $x11669 (not (and $x10208 $x949 $x10285 $x781))))))))))))))))))))))))))))))))))))))))))))))))))))))))))))))))))))))))))))))))))))))))))))))))))
 )
(check-sat)
(get-proof)
